param Dem :=
	1	3000
	2	2000
;
param C:= 
[*,*,1]:
		1		2		3	:=
	1	0.5		3.75	0.6	
	2	0.5		3.30	0.75
[*,*,2]:
		1		2		3	:=
	1	0.6		4.0		0.65	
	2	0.6		3.9		0.78
;
param CapH := 200;
param CapHE := 50;
param CHE := 9;
param T:	
		1	2	 3	:=
	1	1	3	 1
	2	1	2.5	 1.5
;

